p cnf 10 50
-7 1 -9 0
2 -8 -9 0
5 9 -3 0
-4 -9 -3 0
10 -3 5 0
-7 -10 -3 0
-6 -1 -9 0
-5 7 6 0
9 -5 1 0
3 5 -2 0
-4 8 6 0
-3 8 -2 0
-10 8 -5 0
-5 3 9 0
-8 -6 10 0
-3 -9 7 0
9 -1 -7 0
-7 -6 -9 0
6 -1 -2 0
10 -2 4 0
3 7 4 0
4 6 2 0
-2 3 -9 0
-6 7 -1 0
10 -6 -5 0
3 5 -9 0
-5 -9 7 0
5 -2 10 0
-7 10 -4 0
9 -4 -1 0
-6 -2 1 0
4 6 7 0
2 8 -6 0
8 7 -6 0
-1 10 5 0
3 -8 2 0
-4 -8 -3 0
5 -6 -7 0
1 7 6 0
1 -6 -7 0
-2 4 -10 0
4 -3 2 0
4 1 -5 0
-6 3 -5 0
8 1 -7 0
-1 4 10 0
9 -7 -8 0
-7 -4 -5 0
3 -6 -5 0
-2 -4 -6 0
